101 673
1 30 70 31 88 62 10 11 19 47 48 82 7 18 52 89 6 94 96 99 98 37 100 85 91 93 59 92 95 97 87 13 58 40 21 73 74 72 75 22 41 2 57 15 43 42 14 38 44 86 16 61 17 84 5 60 83 45 8 46 36 49 64 63 90 32 66 20 51 9 71 65 35 34 78 81 33 3 79 50 76 77 80 68 29 24 55 25 39 67 23 56 4 54 12 26 28 53 101 27 69 
